Problem:    
Rows:       105
Columns:    45 (34 integer, 34 binary)
Non-zeros:  302
Status:     INTEGER OPTIMAL
Objective:  value = 15.923477 (MINimum)

   No.   Row name        Activity     Lower bound   Upper bound
------ ------------    ------------- ------------- -------------
     1 r.5                   15.9235             0               
     2 r.6                   4.25418      -1995.09               
     3 r.7                   2015.92             0               
     4 r.8                  -1984.08      -1995.89               
     5 r.9                   2015.92             0               
     6 r.10                 -1992.03      -1996.28               
     7 r.11                  15.9235             0               
     8 r.12                  8.41868       -1998.3               
     9 r.13                  15.9235             0               
    10 r.14                -0.652823      -1995.06               
    11 r.15                  2015.92             0               
    12 r.16                 -1988.18       -1996.6               
    13 r.17                  2015.92             0               
    14 r.18                 -1984.08      -1992.05               
    15 r.19                  15.9235             0               
    16 r.20                 -1976.07      -1991.99               
    17 r.21                  2015.92             0               
    18 r.22                  -1999.7       -1999.7               
    19 r.23                  15.9235             0               
    20 r.24                 0.299444      -1998.85               
    21 r.25                        1             1             = 
    22 r.26                        1             1             = 
    23 r.27                        1             1             = 
    24 r.28                        1             1             = 
    25 r.29                        1             1             = 
    26 r.30                   3.7168        3.7168               
    27 r.31                  -3.7168      -1995.09               
    28 r.32                   1992.5        1.7047               
    29 r.33                  -1992.5      -1995.89               
    30 r.34                  1995.09        4.9401               
    31 r.35                 -1995.09      -1995.09               
    32 r.36                  1995.89        3.3979               
    33 r.37                 -1995.89      -1995.89               
    34 r.38                  11.6693        7.9525               
    35 r.39                 -11.6693      -1995.09               
    36 r.40                   8.0107        8.0107               
    37 r.41                  -8.0107      -1995.89               
    38 r.42                  3.95473      -1991.14               
    39 r.43                 -1984.38      -1987.98               
    40 r.44                  3.95473      -1991.14               
    41 r.45                 -1984.38      -1987.98               
    42 r.46                  1996.28         4.907               
    43 r.47                 -1996.28      -1996.28               
    44 r.48                   7.5048        4.1069               
    45 r.49                  -7.5048       -1998.3               
    46 r.50                  1991.38        4.9401               
    47 r.51                 -1991.38      -1996.28               
    48 r.52                   3.3979        3.3979               
    49 r.53                  -3.3979       -1998.3               
    50 r.54                   7.9525        7.9525               
    51 r.55                  -7.9525      -1996.28               
    52 r.56                  15.5155        8.0107               
    53 r.57                 -15.5155       -1998.3               
    54 r.58                 -1992.33      -1992.33               
    55 r.59                  8.11923      -1990.39               
    56 r.60                 -1992.33      -1992.33               
    57 r.61                  8.11923      -1990.39               
    58 r.62                    4.907         4.907               
    59 r.63                   -4.907      -1995.06               
    60 r.64                   4.1069        4.1069               
    61 r.65                  -4.1069       -1996.6               
    62 r.66                   8.6238        3.7168               
    63 r.67                  -8.6238      -1995.06               
    64 r.68                   1996.6        1.7047               
    65 r.69                  -1996.6       -1996.6               
    66 r.70                  16.5763        7.9525               
    67 r.71                 -16.5763      -1995.06               
    68 r.72                  12.1176        8.0107               
    69 r.73                 -12.1176       -1996.6               
    70 r.74                -0.952267      -1991.11               
    71 r.75                 -1988.48      -1988.69               
    72 r.76                -0.952267      -1991.11               
    73 r.77                 -1988.48      -1988.69               
    74 r.78                  1988.33         4.907               
    75 r.79                 -1988.33      -1992.05               
    76 r.80                  1991.99        4.1069               
    77 r.81                 -1991.99      -1991.99               
    78 r.82                  1992.05        3.7168               
    79 r.83                 -1992.05      -1992.05               
    80 r.84                  1984.48        1.7047               
    81 r.85                 -1984.48      -1991.99               
    82 r.86                  1983.42        4.9401               
    83 r.87                 -1983.42      -1992.05               
    84 r.88                  1987.88        3.3979               
    85 r.89                 -1987.88      -1991.99               
    86 r.90                 -1984.38      -1988.09               
    87 r.91                 -1976.37      -1984.08               
    88 r.92                 -1984.38      -1988.09               
    89 r.93                 -1976.37      -1984.08               
    90 r.94                  3.95473      -1991.14               
    91 r.95                 -1984.38      -1987.98               
    92 r.96                  3.95473      -1991.14               
    93 r.97                 -1984.38      -1987.98               
    94 r.98                 -1992.33      -1992.33               
    95 r.99                  8.11923      -1990.39               
    96 r.100                -1992.33      -1992.33               
    97 r.101                 8.11923      -1990.39               
    98 r.102               -0.952267      -1991.11               
    99 r.103                -1988.48      -1988.69               
   100 r.104               -0.952267      -1991.11               
   101 r.105                -1988.48      -1988.69               
   102 r.106                -1984.38      -1988.09               
   103 r.107                -1976.37      -1984.08               
   104 r.108                -1984.38      -1988.09               
   105 r.109                -1976.37      -1984.08               

   No. Column name       Activity     Lower bound   Upper bound
------ ------------    ------------- ------------- -------------
     1 tt                    15.9235             0               
     2 s_1_1        *              0             0             1 
     3 t_1_1                 11.6693             0               
     4 s_2_1        *              1             0             1 
     5 t_2_1                       0             0               
     6 s_1_2        *              1             0             1 
     7 t_1_2                  7.9525             0               
     8 s_2_2        *              0             0             1 
     9 t_2_2                  7.5048             0               
    10 s_1_3        *              0             0             1 
    11 t_1_3                 16.5763             0               
    12 s_2_3        *              1             0             1 
    13 t_2_3                  4.1069             0               
    14 s_1_4        *              1             0             1 
    15 t_1_4                       0             0               
    16 s_2_4        *              0             0             1 
    17 t_2_4                 1991.99             0               
    18 s_1_5        *              1             0             1 
    19 t_1_5                  15.624             0               
    20 s_2_5        *              0             0             1 
    21 t_2_5                  15.624             0               
    22 u_1_1_2      *              0             0             1 
    23 u_2_1_2      *              1             0             1 
    24 u_1_1_3      *              1             0             1 
    25 u_2_1_3      *              1             0             1 
    26 u_1_1_4      *              0             0             1 
    27 u_2_1_4      *              1             0             1 
    28 u_1_2_1      *              1             0             1 
    29 u_2_2_1      *              0             0             1 
    30 u_1_2_3      *              1             0             1 
    31 u_2_2_3      *              0             0             1 
    32 u_1_2_4      *              0             0             1 
    33 u_2_2_4      *              1             0             1 
    34 u_1_3_1      *              0             0             1 
    35 u_2_3_1      *              0             0             1 
    36 u_1_3_2      *              0             0             1 
    37 u_2_3_2      *              1             0             1 
    38 u_1_3_4      *              0             0             1 
    39 u_2_3_4      *              1             0             1 
    40 u_1_4_1      *              1             0             1 
    41 u_2_4_1      *              0             0             1 
    42 u_1_4_2      *              1             0             1 
    43 u_2_4_2      *              0             0             1 
    44 u_1_4_3      *              1             0             1 
    45 u_2_4_3      *              0             0             1 

Integer feasibility conditions:

KKT.PE: max.abs.err = 0.00e+00 on row 0
        max.rel.err = 0.00e+00 on row 0
        High quality

KKT.PB: max.abs.err = 6.84e-14 on row 48
        max.rel.err = 1.56e-14 on row 48
        High quality

End of output
